============================[ Problem Statistics ]=============================|                                                                             ||  Number of variables:          4242                                         ||  Number of clauses:           10428                                         ||  Parse time:                   0.82 s                                       ||                                                                             |============================[ Search Statistics ]==============================| Conflicts |          ORIGINAL         |          LEARNT          | Progress ||           |    Vars  Clauses Literals |    Limit  Clauses Lit/Cl |          |===============================================================================|       100 |    1591     6633  1300504 |     2432      100     53 | 62.501 % ||       250 |    1591     6633  1300504 |     2675      250     75 | 62.495 % |===============================================================================restarts              : 4conflicts             : 439            (353 /sec)decisions             : 799            (0.00 % random) (642 /sec)propagations          : 13722          (11031 /sec)conflict literals     : 37042          (94.48 % deleted)CPU time              : 1.244 sSATISFIABLE